c preprocessed version of dimacs_myciel5, 29 vertices, 106 edges
p td 29 106
0 1
0 9
0 18
0 16
2 1
10 1
20 1
2 3
2 11
2 23
2 16
4 3
21 3
20 3
19 3
4 5
4 18
4 16
6 5
21 5
17 5
19 5
6 7
6 13
6 22
6 16
8 7
14 7
17 7
8 9
8 18
8 16
10 9
14 9
10 11
10 15
10 16
19 10
12 11
12 13
12 22
12 23
12 15
12 16
19 12
14 13
14 15
14 16
19 14
17 16
21 16
20 16
17 18
19 18
20 18
21 22
21 23
24 1
24 3
24 6
24 8
24 11
24 14
24 27
24 19
24 17
24 23
24 25
24 26
24 28
25 28
25 0
25 2
25 4
25 6
25 8
25 10
25 12
25 14
25 26
25 21
25 17
25 20
25 19
25 27
26 28
26 0
26 4
26 8
26 11
26 13
26 15
26 22
26 17
26 20
26 23
26 19
26 27
27 28
27 11
27 15
28 5
28 7
28 13
28 19
28 22
